clingo version 5.4.0
Reading from merger/Tarik/merge.lp ...
Solving...
Answer: 1
occurs(object(robot,1),action(move,(1,0)),1). occurs(object(robot,1),action(move,(0,1)),4). occurs(object(robot,3),action(move,(0,1)),1). occurs(object(robot,3),action(move,(0,1)),2). occurs(object(robot,3),action(move,(0,1)),3). occurs(object(robot,3),action(move,(0,1)),4). occurs(object(robot,4),action(move,(-1,0)),1). occurs(object(robot,4),action(move,(0,1)),2). occurs(object(robot,4),action(move,(0,1)),3). occurs(object(robot,4),action(move,(0,1)),4). occurs(object(robot,5),action(move,(1,0)),1). occurs(object(robot,5),action(move,(0,-1)),2). occurs(object(robot,5),action(move,(0,-1)),3). occurs(object(robot,5),action(move,(0,-1)),4). occurs(object(robot,6),action(move,(0,-1)),1). occurs(object(robot,6),action(move,(0,-1)),2). occurs(object(robot,6),action(move,(0,-1)),3). occurs(object(robot,6),action(move,(0,-1)),4). occurs(object(robot,7),action(move,(0,-1)),2). occurs(object(robot,8),action(move,(0,-1)),5). occurs(object(robot,8),action(move,(0,-1)),7). occurs(object(robot,8),action(move,(0,-1)),9). occurs(object(robot,7),action(move,(0,-1)),6). occurs(object(robot,7),action(move,(0,-1)),7). occurs(object(robot,6),action(move,(0,-1)),5). occurs(object(robot,5),action(move,(0,-1)),5). occurs(object(robot,5),action(move,(0,-1)),7). occurs(object(robot,4),action(move,(0,1)),5). occurs(object(robot,4),action(move,(0,1)),7). occurs(object(robot,3),action(move,(0,1)),5). occurs(object(robot,1),action(move,(0,1)),6). occurs(object(robot,1),action(move,(0,1)),7). occurs(object(robot,1),action(move,(0,1)),8). occurs(object(robot,8),action(move,(0,-1)),8). occurs(object(robot,8),action(move,(1,0)),6). occurs(object(robot,5),action(move,(-1,0)),6). occurs(object(robot,4),action(move,(1,0)),6). occurs(object(robot,1),action(move,(-1,0)),5). occurs(object(robot,8),action(move,(-1,0)),3). occurs(object(robot,8),action(move,(-1,0)),4). occurs(object(robot,7),action(move,(0,0)),4). occurs(object(robot,7),action(move,(0,-1)),8). occurs(object(robot,7),action(move,(-1,0)),3). occurs(object(robot,7),action(move,(1,0)),5). occurs(object(robot,1),action(move,(1,0)),2). occurs(object(robot,2),action(move,(0,-1)),1). occurs(object(robot,2),action(move,(1,0)),2). occurs(object(robot,2),action(move,(0,0)),3). occurs(object(robot,2),action(move,(0,1)),4). occurs(object(robot,1),action(move,(-1,0)),9). occurs(object(robot,1),action(move,(0,1)),10). occurs(object(robot,7),action(move,(0,-1)),9). occurs(object(robot,8),action(move,(1,0)),10). occurs(object(robot,8),action(move,(0,-1)),11). occurs(object(robot,2),action(move,(-1,0)),6).
Optimization: 13
Answer: 2
occurs(object(robot,3),action(move,(0,1)),1). occurs(object(robot,3),action(move,(0,1)),4). occurs(object(robot,4),action(move,(-1,0)),1). occurs(object(robot,4),action(move,(0,1)),2). occurs(object(robot,4),action(move,(0,1)),3). occurs(object(robot,4),action(move,(0,1)),4). occurs(object(robot,5),action(move,(1,0)),1). occurs(object(robot,5),action(move,(0,-1)),2). occurs(object(robot,5),action(move,(0,-1)),3). occurs(object(robot,5),action(move,(0,-1)),4). occurs(object(robot,6),action(move,(0,-1)),1). occurs(object(robot,6),action(move,(0,-1)),2). occurs(object(robot,6),action(move,(0,-1)),3). occurs(object(robot,6),action(move,(0,-1)),4). occurs(object(robot,7),action(move,(0,-1)),1). occurs(object(robot,7),action(move,(0,-1)),4). occurs(object(robot,8),action(move,(0,-1)),5). occurs(object(robot,8),action(move,(0,-1)),7). occurs(object(robot,8),action(move,(0,-1)),9). occurs(object(robot,7),action(move,(0,-1)),7). occurs(object(robot,6),action(move,(0,-1)),5). occurs(object(robot,5),action(move,(0,-1)),5). occurs(object(robot,5),action(move,(0,-1)),7). occurs(object(robot,4),action(move,(0,1)),5). occurs(object(robot,4),action(move,(0,1)),7). occurs(object(robot,3),action(move,(0,1)),5). occurs(object(robot,3),action(move,(0,1)),6). occurs(object(robot,3),action(move,(0,1)),7). occurs(object(robot,1),action(move,(0,1)),5). occurs(object(robot,1),action(move,(0,1)),7). occurs(object(robot,1),action(move,(0,1)),9). occurs(object(robot,1),action(move,(0,1)),8). occurs(object(robot,8),action(move,(0,-1)),8). occurs(object(robot,8),action(move,(1,0)),6). occurs(object(robot,5),action(move,(-1,0)),6). occurs(object(robot,4),action(move,(1,0)),6). occurs(object(robot,1),action(move,(-1,0)),6). occurs(object(robot,8),action(move,(-1,0)),2). occurs(object(robot,8),action(move,(-1,0)),4). occurs(object(robot,7),action(move,(0,0)),5). occurs(object(robot,7),action(move,(0,-1)),8). occurs(object(robot,7),action(move,(-1,0)),3). occurs(object(robot,7),action(move,(1,0)),6). occurs(object(robot,3),action(move,(-1,0)),2). occurs(object(robot,3),action(move,(1,0)),3). occurs(object(robot,1),action(move,(1,0)),2). occurs(object(robot,1),action(move,(1,0)),4). occurs(object(robot,2),action(move,(0,-1)),1). occurs(object(robot,2),action(move,(1,0)),2). occurs(object(robot,2),action(move,(-1,0)),3). occurs(object(robot,2),action(move,(1,0)),4). occurs(object(robot,2),action(move,(0,1)),5). occurs(object(robot,7),action(move,(0,-1)),9). occurs(object(robot,8),action(move,(1,0)),10). occurs(object(robot,8),action(move,(0,-1)),11). occurs(object(robot,1),action(move,(-1,0)),10). occurs(object(robot,1),action(move,(0,1)),11). occurs(object(robot,2),action(move,(-1,0)),6).
Optimization: 12
Answer: 3
occurs(object(robot,3),action(move,(0,1)),1). occurs(object(robot,3),action(move,(0,1)),2). occurs(object(robot,3),action(move,(0,1)),3). occurs(object(robot,3),action(move,(0,1)),4). occurs(object(robot,4),action(move,(-1,0)),1). occurs(object(robot,4),action(move,(0,1)),2). occurs(object(robot,4),action(move,(0,1)),3). occurs(object(robot,4),action(move,(0,1)),4). occurs(object(robot,5),action(move,(1,0)),1). occurs(object(robot,5),action(move,(0,-1)),2). occurs(object(robot,5),action(move,(0,-1)),3). occurs(object(robot,5),action(move,(0,-1)),4). occurs(object(robot,6),action(move,(0,-1)),1). occurs(object(robot,6),action(move,(0,-1)),2). occurs(object(robot,6),action(move,(0,-1)),3). occurs(object(robot,6),action(move,(0,-1)),4). occurs(object(robot,7),action(move,(0,-1)),1). occurs(object(robot,7),action(move,(0,-1)),4). occurs(object(robot,8),action(move,(0,-1)),5). occurs(object(robot,8),action(move,(0,-1)),7). occurs(object(robot,8),action(move,(0,-1)),9). occurs(object(robot,7),action(move,(0,-1)),7). occurs(object(robot,6),action(move,(0,-1)),5). occurs(object(robot,5),action(move,(0,-1)),5). occurs(object(robot,5),action(move,(0,-1)),7). occurs(object(robot,4),action(move,(0,1)),5). occurs(object(robot,4),action(move,(0,1)),7). occurs(object(robot,3),action(move,(0,1)),5). occurs(object(robot,1),action(move,(0,1)),5). occurs(object(robot,1),action(move,(0,1)),7). occurs(object(robot,1),action(move,(0,1)),9). occurs(object(robot,1),action(move,(0,1)),8). occurs(object(robot,8),action(move,(0,-1)),8). occurs(object(robot,8),action(move,(1,0)),6). occurs(object(robot,5),action(move,(-1,0)),6). occurs(object(robot,4),action(move,(1,0)),6). occurs(object(robot,1),action(move,(-1,0)),6). occurs(object(robot,8),action(move,(-1,0)),2). occurs(object(robot,8),action(move,(-1,0)),4). occurs(object(robot,7),action(move,(0,0)),5). occurs(object(robot,7),action(move,(0,-1)),8). occurs(object(robot,7),action(move,(-1,0)),3). occurs(object(robot,7),action(move,(1,0)),6). occurs(object(robot,1),action(move,(1,0)),2). occurs(object(robot,1),action(move,(1,0)),4). occurs(object(robot,2),action(move,(0,1)),1). occurs(object(robot,2),action(move,(1,0)),3). occurs(object(robot,2),action(move,(-1,0)),5). occurs(object(robot,7),action(move,(0,-1)),9). occurs(object(robot,8),action(move,(1,0)),10). occurs(object(robot,8),action(move,(0,-1)),11). occurs(object(robot,1),action(move,(-1,0)),10). occurs(object(robot,1),action(move,(0,1)),11). occurs(object(robot,2),action(move,(0,-1)),6).
Optimization: 8
OPTIMUM FOUND

Models       : 3
  Optimum    : yes
Optimization : 8
Calls        : 1
Time         : 0.439s (Solving: 0.06s 1st Model: 0.05s Unsat: 0.00s)
CPU Time     : 0.418s
